CPXPARAM_Emphasis_MIP#P8#3#3.021649#0.627228
CPXPARAM_Emphasis_MIP#P8#4#4.817467#1.000000
CPXPARAM_Emphasis_MIP#P8#5#2.805591#0.582379
CPXPARAM_MIP_Strategy_HeuristicFreq#P37#20#4.168546#0.865298
CPXPARAM_MIP_Strategy_HeuristicFreq#P37#40#4.164247#0.864406
CPXPARAM_MIP_Strategy_HeuristicFreq#P37#500#4.375080#0.908170
CPXPARAM_MIP_Strategy_SubAlgorithm#P45#1#4.164274#0.864412
